
  32    1
  10

   0   0   6 2 3 4 5 9 13 
   1   5   4 15 8 7 6 
   2   3   5 19 15 10 8 7 
   6  10   5 21 19 15 8 7 
   2   4   6 31 19 15 12 11 8 
   2   9   5 21 19 16 11 10 
   9   9   4 17 14 12 11 
   9  10   6 30 23 20 18 17 16 
   8   8   8 31 30 29 27 23 22 20 18 
   1  10   4 29 23 22 14 
   1  10   6 30 28 27 23 22 18 
   9   8   6 30 29 27 26 22 20 
  10   8   6 31 30 29 27 22 18 
   8  10   5 31 30 28 27 18 
   5   8   4 29 28 25 22 
   7   8   4 29 28 27 24 
   3   9   3 29 26 22 
   1   8   3 26 25 24 
   5   9   3 26 25 24 
   5  10   2 28 25 
   5   5   2 27 25 
   8   8   1 24 
   9  10   1 26 
   5  10   1 32
   7   8   1 32
   9   8   1 32
   1   5   1 32
   7   8   1 32
  10   7   1 32
   1   7   1 32
   1   8   1 32
   0   0   0 
